c *********************************
c * Circuit generated by BenCGen
c *
c * RippleCarryAdderSubtractor_113_113_113_OutSunT
c *
c * Ports with 1 gate(s): 2
c * Ports with 2 gate(s): 680
c * Total gates: 682
c *********************************
p cnf 908 2384
1 342 0
-1 -342 0
1 -341 0
342 -341 0
-1 -342 341 0
341 343 0
-341 -343 0
114 341 -344 0
-114 341 344 0
114 -341 344 0
-114 -341 -344 0
115 341 -345 0
-115 341 345 0
115 -341 345 0
-115 -341 -345 0
116 341 -346 0
-116 341 346 0
116 -341 346 0
-116 -341 -346 0
117 341 -347 0
-117 341 347 0
117 -341 347 0
-117 -341 -347 0
118 341 -348 0
-118 341 348 0
118 -341 348 0
-118 -341 -348 0
119 341 -349 0
-119 341 349 0
119 -341 349 0
-119 -341 -349 0
120 341 -350 0
-120 341 350 0
120 -341 350 0
-120 -341 -350 0
121 341 -351 0
-121 341 351 0
121 -341 351 0
-121 -341 -351 0
122 341 -352 0
-122 341 352 0
122 -341 352 0
-122 -341 -352 0
123 341 -353 0
-123 341 353 0
123 -341 353 0
-123 -341 -353 0
124 341 -354 0
-124 341 354 0
124 -341 354 0
-124 -341 -354 0
125 341 -355 0
-125 341 355 0
125 -341 355 0
-125 -341 -355 0
126 341 -356 0
-126 341 356 0
126 -341 356 0
-126 -341 -356 0
127 341 -357 0
-127 341 357 0
127 -341 357 0
-127 -341 -357 0
128 341 -358 0
-128 341 358 0
128 -341 358 0
-128 -341 -358 0
129 341 -359 0
-129 341 359 0
129 -341 359 0
-129 -341 -359 0
130 341 -360 0
-130 341 360 0
130 -341 360 0
-130 -341 -360 0
131 341 -361 0
-131 341 361 0
131 -341 361 0
-131 -341 -361 0
132 341 -362 0
-132 341 362 0
132 -341 362 0
-132 -341 -362 0
133 341 -363 0
-133 341 363 0
133 -341 363 0
-133 -341 -363 0
134 341 -364 0
-134 341 364 0
134 -341 364 0
-134 -341 -364 0
135 341 -365 0
-135 341 365 0
135 -341 365 0
-135 -341 -365 0
136 341 -366 0
-136 341 366 0
136 -341 366 0
-136 -341 -366 0
137 341 -367 0
-137 341 367 0
137 -341 367 0
-137 -341 -367 0
138 341 -368 0
-138 341 368 0
138 -341 368 0
-138 -341 -368 0
139 341 -369 0
-139 341 369 0
139 -341 369 0
-139 -341 -369 0
140 341 -370 0
-140 341 370 0
140 -341 370 0
-140 -341 -370 0
141 341 -371 0
-141 341 371 0
141 -341 371 0
-141 -341 -371 0
142 341 -372 0
-142 341 372 0
142 -341 372 0
-142 -341 -372 0
143 341 -373 0
-143 341 373 0
143 -341 373 0
-143 -341 -373 0
144 341 -374 0
-144 341 374 0
144 -341 374 0
-144 -341 -374 0
145 341 -375 0
-145 341 375 0
145 -341 375 0
-145 -341 -375 0
146 341 -376 0
-146 341 376 0
146 -341 376 0
-146 -341 -376 0
147 341 -377 0
-147 341 377 0
147 -341 377 0
-147 -341 -377 0
148 341 -378 0
-148 341 378 0
148 -341 378 0
-148 -341 -378 0
149 341 -379 0
-149 341 379 0
149 -341 379 0
-149 -341 -379 0
150 341 -380 0
-150 341 380 0
150 -341 380 0
-150 -341 -380 0
151 341 -381 0
-151 341 381 0
151 -341 381 0
-151 -341 -381 0
152 341 -382 0
-152 341 382 0
152 -341 382 0
-152 -341 -382 0
153 341 -383 0
-153 341 383 0
153 -341 383 0
-153 -341 -383 0
154 341 -384 0
-154 341 384 0
154 -341 384 0
-154 -341 -384 0
155 341 -385 0
-155 341 385 0
155 -341 385 0
-155 -341 -385 0
156 341 -386 0
-156 341 386 0
156 -341 386 0
-156 -341 -386 0
157 341 -387 0
-157 341 387 0
157 -341 387 0
-157 -341 -387 0
158 341 -388 0
-158 341 388 0
158 -341 388 0
-158 -341 -388 0
159 341 -389 0
-159 341 389 0
159 -341 389 0
-159 -341 -389 0
160 341 -390 0
-160 341 390 0
160 -341 390 0
-160 -341 -390 0
161 341 -391 0
-161 341 391 0
161 -341 391 0
-161 -341 -391 0
162 341 -392 0
-162 341 392 0
162 -341 392 0
-162 -341 -392 0
163 341 -393 0
-163 341 393 0
163 -341 393 0
-163 -341 -393 0
164 341 -394 0
-164 341 394 0
164 -341 394 0
-164 -341 -394 0
165 341 -395 0
-165 341 395 0
165 -341 395 0
-165 -341 -395 0
166 341 -396 0
-166 341 396 0
166 -341 396 0
-166 -341 -396 0
167 341 -397 0
-167 341 397 0
167 -341 397 0
-167 -341 -397 0
168 341 -398 0
-168 341 398 0
168 -341 398 0
-168 -341 -398 0
169 341 -399 0
-169 341 399 0
169 -341 399 0
-169 -341 -399 0
170 341 -400 0
-170 341 400 0
170 -341 400 0
-170 -341 -400 0
171 341 -401 0
-171 341 401 0
171 -341 401 0
-171 -341 -401 0
172 341 -402 0
-172 341 402 0
172 -341 402 0
-172 -341 -402 0
173 341 -403 0
-173 341 403 0
173 -341 403 0
-173 -341 -403 0
174 341 -404 0
-174 341 404 0
174 -341 404 0
-174 -341 -404 0
175 341 -405 0
-175 341 405 0
175 -341 405 0
-175 -341 -405 0
176 341 -406 0
-176 341 406 0
176 -341 406 0
-176 -341 -406 0
177 341 -407 0
-177 341 407 0
177 -341 407 0
-177 -341 -407 0
178 341 -408 0
-178 341 408 0
178 -341 408 0
-178 -341 -408 0
179 341 -409 0
-179 341 409 0
179 -341 409 0
-179 -341 -409 0
180 341 -410 0
-180 341 410 0
180 -341 410 0
-180 -341 -410 0
181 341 -411 0
-181 341 411 0
181 -341 411 0
-181 -341 -411 0
182 341 -412 0
-182 341 412 0
182 -341 412 0
-182 -341 -412 0
183 341 -413 0
-183 341 413 0
183 -341 413 0
-183 -341 -413 0
184 341 -414 0
-184 341 414 0
184 -341 414 0
-184 -341 -414 0
185 341 -415 0
-185 341 415 0
185 -341 415 0
-185 -341 -415 0
186 341 -416 0
-186 341 416 0
186 -341 416 0
-186 -341 -416 0
187 341 -417 0
-187 341 417 0
187 -341 417 0
-187 -341 -417 0
188 341 -418 0
-188 341 418 0
188 -341 418 0
-188 -341 -418 0
189 341 -419 0
-189 341 419 0
189 -341 419 0
-189 -341 -419 0
190 341 -420 0
-190 341 420 0
190 -341 420 0
-190 -341 -420 0
191 341 -421 0
-191 341 421 0
191 -341 421 0
-191 -341 -421 0
192 341 -422 0
-192 341 422 0
192 -341 422 0
-192 -341 -422 0
193 341 -423 0
-193 341 423 0
193 -341 423 0
-193 -341 -423 0
194 341 -424 0
-194 341 424 0
194 -341 424 0
-194 -341 -424 0
195 341 -425 0
-195 341 425 0
195 -341 425 0
-195 -341 -425 0
196 341 -426 0
-196 341 426 0
196 -341 426 0
-196 -341 -426 0
197 341 -427 0
-197 341 427 0
197 -341 427 0
-197 -341 -427 0
198 341 -428 0
-198 341 428 0
198 -341 428 0
-198 -341 -428 0
199 341 -429 0
-199 341 429 0
199 -341 429 0
-199 -341 -429 0
200 341 -430 0
-200 341 430 0
200 -341 430 0
-200 -341 -430 0
201 341 -431 0
-201 341 431 0
201 -341 431 0
-201 -341 -431 0
202 341 -432 0
-202 341 432 0
202 -341 432 0
-202 -341 -432 0
203 341 -433 0
-203 341 433 0
203 -341 433 0
-203 -341 -433 0
204 341 -434 0
-204 341 434 0
204 -341 434 0
-204 -341 -434 0
205 341 -435 0
-205 341 435 0
205 -341 435 0
-205 -341 -435 0
206 341 -436 0
-206 341 436 0
206 -341 436 0
-206 -341 -436 0
207 341 -437 0
-207 341 437 0
207 -341 437 0
-207 -341 -437 0
208 341 -438 0
-208 341 438 0
208 -341 438 0
-208 -341 -438 0
209 341 -439 0
-209 341 439 0
209 -341 439 0
-209 -341 -439 0
210 341 -440 0
-210 341 440 0
210 -341 440 0
-210 -341 -440 0
211 341 -441 0
-211 341 441 0
211 -341 441 0
-211 -341 -441 0
212 341 -442 0
-212 341 442 0
212 -341 442 0
-212 -341 -442 0
213 341 -443 0
-213 341 443 0
213 -341 443 0
-213 -341 -443 0
214 341 -444 0
-214 341 444 0
214 -341 444 0
-214 -341 -444 0
215 341 -445 0
-215 341 445 0
215 -341 445 0
-215 -341 -445 0
216 341 -446 0
-216 341 446 0
216 -341 446 0
-216 -341 -446 0
217 341 -447 0
-217 341 447 0
217 -341 447 0
-217 -341 -447 0
218 341 -448 0
-218 341 448 0
218 -341 448 0
-218 -341 -448 0
219 341 -449 0
-219 341 449 0
219 -341 449 0
-219 -341 -449 0
220 341 -450 0
-220 341 450 0
220 -341 450 0
-220 -341 -450 0
221 341 -451 0
-221 341 451 0
221 -341 451 0
-221 -341 -451 0
222 341 -452 0
-222 341 452 0
222 -341 452 0
-222 -341 -452 0
223 341 -453 0
-223 341 453 0
223 -341 453 0
-223 -341 -453 0
224 341 -454 0
-224 341 454 0
224 -341 454 0
-224 -341 -454 0
225 341 -455 0
-225 341 455 0
225 -341 455 0
-225 -341 -455 0
226 341 -456 0
-226 341 456 0
226 -341 456 0
-226 -341 -456 0
1 344 -458 0
-1 344 458 0
1 -344 458 0
-1 -344 -458 0
458 341 -227 0
-458 341 227 0
458 -341 227 0
-458 -341 -227 0
341 -459 0
458 -459 0
-341 -458 459 0
344 -460 0
1 -460 0
-344 -1 460 0
-459 457 0
-460 457 0
459 460 -457 0
2 345 -462 0
-2 345 462 0
2 -345 462 0
-2 -345 -462 0
462 457 -228 0
-462 457 228 0
462 -457 228 0
-462 -457 -228 0
457 -463 0
462 -463 0
-457 -462 463 0
345 -464 0
2 -464 0
-345 -2 464 0
-463 461 0
-464 461 0
463 464 -461 0
3 346 -466 0
-3 346 466 0
3 -346 466 0
-3 -346 -466 0
466 461 -229 0
-466 461 229 0
466 -461 229 0
-466 -461 -229 0
461 -467 0
466 -467 0
-461 -466 467 0
346 -468 0
3 -468 0
-346 -3 468 0
-467 465 0
-468 465 0
467 468 -465 0
4 347 -470 0
-4 347 470 0
4 -347 470 0
-4 -347 -470 0
470 465 -230 0
-470 465 230 0
470 -465 230 0
-470 -465 -230 0
465 -471 0
470 -471 0
-465 -470 471 0
347 -472 0
4 -472 0
-347 -4 472 0
-471 469 0
-472 469 0
471 472 -469 0
5 348 -474 0
-5 348 474 0
5 -348 474 0
-5 -348 -474 0
474 469 -231 0
-474 469 231 0
474 -469 231 0
-474 -469 -231 0
469 -475 0
474 -475 0
-469 -474 475 0
348 -476 0
5 -476 0
-348 -5 476 0
-475 473 0
-476 473 0
475 476 -473 0
6 349 -478 0
-6 349 478 0
6 -349 478 0
-6 -349 -478 0
478 473 -232 0
-478 473 232 0
478 -473 232 0
-478 -473 -232 0
473 -479 0
478 -479 0
-473 -478 479 0
349 -480 0
6 -480 0
-349 -6 480 0
-479 477 0
-480 477 0
479 480 -477 0
7 350 -482 0
-7 350 482 0
7 -350 482 0
-7 -350 -482 0
482 477 -233 0
-482 477 233 0
482 -477 233 0
-482 -477 -233 0
477 -483 0
482 -483 0
-477 -482 483 0
350 -484 0
7 -484 0
-350 -7 484 0
-483 481 0
-484 481 0
483 484 -481 0
8 351 -486 0
-8 351 486 0
8 -351 486 0
-8 -351 -486 0
486 481 -234 0
-486 481 234 0
486 -481 234 0
-486 -481 -234 0
481 -487 0
486 -487 0
-481 -486 487 0
351 -488 0
8 -488 0
-351 -8 488 0
-487 485 0
-488 485 0
487 488 -485 0
9 352 -490 0
-9 352 490 0
9 -352 490 0
-9 -352 -490 0
490 485 -235 0
-490 485 235 0
490 -485 235 0
-490 -485 -235 0
485 -491 0
490 -491 0
-485 -490 491 0
352 -492 0
9 -492 0
-352 -9 492 0
-491 489 0
-492 489 0
491 492 -489 0
10 353 -494 0
-10 353 494 0
10 -353 494 0
-10 -353 -494 0
494 489 -236 0
-494 489 236 0
494 -489 236 0
-494 -489 -236 0
489 -495 0
494 -495 0
-489 -494 495 0
353 -496 0
10 -496 0
-353 -10 496 0
-495 493 0
-496 493 0
495 496 -493 0
11 354 -498 0
-11 354 498 0
11 -354 498 0
-11 -354 -498 0
498 493 -237 0
-498 493 237 0
498 -493 237 0
-498 -493 -237 0
493 -499 0
498 -499 0
-493 -498 499 0
354 -500 0
11 -500 0
-354 -11 500 0
-499 497 0
-500 497 0
499 500 -497 0
12 355 -502 0
-12 355 502 0
12 -355 502 0
-12 -355 -502 0
502 497 -238 0
-502 497 238 0
502 -497 238 0
-502 -497 -238 0
497 -503 0
502 -503 0
-497 -502 503 0
355 -504 0
12 -504 0
-355 -12 504 0
-503 501 0
-504 501 0
503 504 -501 0
13 356 -506 0
-13 356 506 0
13 -356 506 0
-13 -356 -506 0
506 501 -239 0
-506 501 239 0
506 -501 239 0
-506 -501 -239 0
501 -507 0
506 -507 0
-501 -506 507 0
356 -508 0
13 -508 0
-356 -13 508 0
-507 505 0
-508 505 0
507 508 -505 0
14 357 -510 0
-14 357 510 0
14 -357 510 0
-14 -357 -510 0
510 505 -240 0
-510 505 240 0
510 -505 240 0
-510 -505 -240 0
505 -511 0
510 -511 0
-505 -510 511 0
357 -512 0
14 -512 0
-357 -14 512 0
-511 509 0
-512 509 0
511 512 -509 0
15 358 -514 0
-15 358 514 0
15 -358 514 0
-15 -358 -514 0
514 509 -241 0
-514 509 241 0
514 -509 241 0
-514 -509 -241 0
509 -515 0
514 -515 0
-509 -514 515 0
358 -516 0
15 -516 0
-358 -15 516 0
-515 513 0
-516 513 0
515 516 -513 0
16 359 -518 0
-16 359 518 0
16 -359 518 0
-16 -359 -518 0
518 513 -242 0
-518 513 242 0
518 -513 242 0
-518 -513 -242 0
513 -519 0
518 -519 0
-513 -518 519 0
359 -520 0
16 -520 0
-359 -16 520 0
-519 517 0
-520 517 0
519 520 -517 0
17 360 -522 0
-17 360 522 0
17 -360 522 0
-17 -360 -522 0
522 517 -243 0
-522 517 243 0
522 -517 243 0
-522 -517 -243 0
517 -523 0
522 -523 0
-517 -522 523 0
360 -524 0
17 -524 0
-360 -17 524 0
-523 521 0
-524 521 0
523 524 -521 0
18 361 -526 0
-18 361 526 0
18 -361 526 0
-18 -361 -526 0
526 521 -244 0
-526 521 244 0
526 -521 244 0
-526 -521 -244 0
521 -527 0
526 -527 0
-521 -526 527 0
361 -528 0
18 -528 0
-361 -18 528 0
-527 525 0
-528 525 0
527 528 -525 0
19 362 -530 0
-19 362 530 0
19 -362 530 0
-19 -362 -530 0
530 525 -245 0
-530 525 245 0
530 -525 245 0
-530 -525 -245 0
525 -531 0
530 -531 0
-525 -530 531 0
362 -532 0
19 -532 0
-362 -19 532 0
-531 529 0
-532 529 0
531 532 -529 0
20 363 -534 0
-20 363 534 0
20 -363 534 0
-20 -363 -534 0
534 529 -246 0
-534 529 246 0
534 -529 246 0
-534 -529 -246 0
529 -535 0
534 -535 0
-529 -534 535 0
363 -536 0
20 -536 0
-363 -20 536 0
-535 533 0
-536 533 0
535 536 -533 0
21 364 -538 0
-21 364 538 0
21 -364 538 0
-21 -364 -538 0
538 533 -247 0
-538 533 247 0
538 -533 247 0
-538 -533 -247 0
533 -539 0
538 -539 0
-533 -538 539 0
364 -540 0
21 -540 0
-364 -21 540 0
-539 537 0
-540 537 0
539 540 -537 0
22 365 -542 0
-22 365 542 0
22 -365 542 0
-22 -365 -542 0
542 537 -248 0
-542 537 248 0
542 -537 248 0
-542 -537 -248 0
537 -543 0
542 -543 0
-537 -542 543 0
365 -544 0
22 -544 0
-365 -22 544 0
-543 541 0
-544 541 0
543 544 -541 0
23 366 -546 0
-23 366 546 0
23 -366 546 0
-23 -366 -546 0
546 541 -249 0
-546 541 249 0
546 -541 249 0
-546 -541 -249 0
541 -547 0
546 -547 0
-541 -546 547 0
366 -548 0
23 -548 0
-366 -23 548 0
-547 545 0
-548 545 0
547 548 -545 0
24 367 -550 0
-24 367 550 0
24 -367 550 0
-24 -367 -550 0
550 545 -250 0
-550 545 250 0
550 -545 250 0
-550 -545 -250 0
545 -551 0
550 -551 0
-545 -550 551 0
367 -552 0
24 -552 0
-367 -24 552 0
-551 549 0
-552 549 0
551 552 -549 0
25 368 -554 0
-25 368 554 0
25 -368 554 0
-25 -368 -554 0
554 549 -251 0
-554 549 251 0
554 -549 251 0
-554 -549 -251 0
549 -555 0
554 -555 0
-549 -554 555 0
368 -556 0
25 -556 0
-368 -25 556 0
-555 553 0
-556 553 0
555 556 -553 0
26 369 -558 0
-26 369 558 0
26 -369 558 0
-26 -369 -558 0
558 553 -252 0
-558 553 252 0
558 -553 252 0
-558 -553 -252 0
553 -559 0
558 -559 0
-553 -558 559 0
369 -560 0
26 -560 0
-369 -26 560 0
-559 557 0
-560 557 0
559 560 -557 0
27 370 -562 0
-27 370 562 0
27 -370 562 0
-27 -370 -562 0
562 557 -253 0
-562 557 253 0
562 -557 253 0
-562 -557 -253 0
557 -563 0
562 -563 0
-557 -562 563 0
370 -564 0
27 -564 0
-370 -27 564 0
-563 561 0
-564 561 0
563 564 -561 0
28 371 -566 0
-28 371 566 0
28 -371 566 0
-28 -371 -566 0
566 561 -254 0
-566 561 254 0
566 -561 254 0
-566 -561 -254 0
561 -567 0
566 -567 0
-561 -566 567 0
371 -568 0
28 -568 0
-371 -28 568 0
-567 565 0
-568 565 0
567 568 -565 0
29 372 -570 0
-29 372 570 0
29 -372 570 0
-29 -372 -570 0
570 565 -255 0
-570 565 255 0
570 -565 255 0
-570 -565 -255 0
565 -571 0
570 -571 0
-565 -570 571 0
372 -572 0
29 -572 0
-372 -29 572 0
-571 569 0
-572 569 0
571 572 -569 0
30 373 -574 0
-30 373 574 0
30 -373 574 0
-30 -373 -574 0
574 569 -256 0
-574 569 256 0
574 -569 256 0
-574 -569 -256 0
569 -575 0
574 -575 0
-569 -574 575 0
373 -576 0
30 -576 0
-373 -30 576 0
-575 573 0
-576 573 0
575 576 -573 0
31 374 -578 0
-31 374 578 0
31 -374 578 0
-31 -374 -578 0
578 573 -257 0
-578 573 257 0
578 -573 257 0
-578 -573 -257 0
573 -579 0
578 -579 0
-573 -578 579 0
374 -580 0
31 -580 0
-374 -31 580 0
-579 577 0
-580 577 0
579 580 -577 0
32 375 -582 0
-32 375 582 0
32 -375 582 0
-32 -375 -582 0
582 577 -258 0
-582 577 258 0
582 -577 258 0
-582 -577 -258 0
577 -583 0
582 -583 0
-577 -582 583 0
375 -584 0
32 -584 0
-375 -32 584 0
-583 581 0
-584 581 0
583 584 -581 0
33 376 -586 0
-33 376 586 0
33 -376 586 0
-33 -376 -586 0
586 581 -259 0
-586 581 259 0
586 -581 259 0
-586 -581 -259 0
581 -587 0
586 -587 0
-581 -586 587 0
376 -588 0
33 -588 0
-376 -33 588 0
-587 585 0
-588 585 0
587 588 -585 0
34 377 -590 0
-34 377 590 0
34 -377 590 0
-34 -377 -590 0
590 585 -260 0
-590 585 260 0
590 -585 260 0
-590 -585 -260 0
585 -591 0
590 -591 0
-585 -590 591 0
377 -592 0
34 -592 0
-377 -34 592 0
-591 589 0
-592 589 0
591 592 -589 0
35 378 -594 0
-35 378 594 0
35 -378 594 0
-35 -378 -594 0
594 589 -261 0
-594 589 261 0
594 -589 261 0
-594 -589 -261 0
589 -595 0
594 -595 0
-589 -594 595 0
378 -596 0
35 -596 0
-378 -35 596 0
-595 593 0
-596 593 0
595 596 -593 0
36 379 -598 0
-36 379 598 0
36 -379 598 0
-36 -379 -598 0
598 593 -262 0
-598 593 262 0
598 -593 262 0
-598 -593 -262 0
593 -599 0
598 -599 0
-593 -598 599 0
379 -600 0
36 -600 0
-379 -36 600 0
-599 597 0
-600 597 0
599 600 -597 0
37 380 -602 0
-37 380 602 0
37 -380 602 0
-37 -380 -602 0
602 597 -263 0
-602 597 263 0
602 -597 263 0
-602 -597 -263 0
597 -603 0
602 -603 0
-597 -602 603 0
380 -604 0
37 -604 0
-380 -37 604 0
-603 601 0
-604 601 0
603 604 -601 0
38 381 -606 0
-38 381 606 0
38 -381 606 0
-38 -381 -606 0
606 601 -264 0
-606 601 264 0
606 -601 264 0
-606 -601 -264 0
601 -607 0
606 -607 0
-601 -606 607 0
381 -608 0
38 -608 0
-381 -38 608 0
-607 605 0
-608 605 0
607 608 -605 0
39 382 -610 0
-39 382 610 0
39 -382 610 0
-39 -382 -610 0
610 605 -265 0
-610 605 265 0
610 -605 265 0
-610 -605 -265 0
605 -611 0
610 -611 0
-605 -610 611 0
382 -612 0
39 -612 0
-382 -39 612 0
-611 609 0
-612 609 0
611 612 -609 0
40 383 -614 0
-40 383 614 0
40 -383 614 0
-40 -383 -614 0
614 609 -266 0
-614 609 266 0
614 -609 266 0
-614 -609 -266 0
609 -615 0
614 -615 0
-609 -614 615 0
383 -616 0
40 -616 0
-383 -40 616 0
-615 613 0
-616 613 0
615 616 -613 0
41 384 -618 0
-41 384 618 0
41 -384 618 0
-41 -384 -618 0
618 613 -267 0
-618 613 267 0
618 -613 267 0
-618 -613 -267 0
613 -619 0
618 -619 0
-613 -618 619 0
384 -620 0
41 -620 0
-384 -41 620 0
-619 617 0
-620 617 0
619 620 -617 0
42 385 -622 0
-42 385 622 0
42 -385 622 0
-42 -385 -622 0
622 617 -268 0
-622 617 268 0
622 -617 268 0
-622 -617 -268 0
617 -623 0
622 -623 0
-617 -622 623 0
385 -624 0
42 -624 0
-385 -42 624 0
-623 621 0
-624 621 0
623 624 -621 0
43 386 -626 0
-43 386 626 0
43 -386 626 0
-43 -386 -626 0
626 621 -269 0
-626 621 269 0
626 -621 269 0
-626 -621 -269 0
621 -627 0
626 -627 0
-621 -626 627 0
386 -628 0
43 -628 0
-386 -43 628 0
-627 625 0
-628 625 0
627 628 -625 0
44 387 -630 0
-44 387 630 0
44 -387 630 0
-44 -387 -630 0
630 625 -270 0
-630 625 270 0
630 -625 270 0
-630 -625 -270 0
625 -631 0
630 -631 0
-625 -630 631 0
387 -632 0
44 -632 0
-387 -44 632 0
-631 629 0
-632 629 0
631 632 -629 0
45 388 -634 0
-45 388 634 0
45 -388 634 0
-45 -388 -634 0
634 629 -271 0
-634 629 271 0
634 -629 271 0
-634 -629 -271 0
629 -635 0
634 -635 0
-629 -634 635 0
388 -636 0
45 -636 0
-388 -45 636 0
-635 633 0
-636 633 0
635 636 -633 0
46 389 -638 0
-46 389 638 0
46 -389 638 0
-46 -389 -638 0
638 633 -272 0
-638 633 272 0
638 -633 272 0
-638 -633 -272 0
633 -639 0
638 -639 0
-633 -638 639 0
389 -640 0
46 -640 0
-389 -46 640 0
-639 637 0
-640 637 0
639 640 -637 0
47 390 -642 0
-47 390 642 0
47 -390 642 0
-47 -390 -642 0
642 637 -273 0
-642 637 273 0
642 -637 273 0
-642 -637 -273 0
637 -643 0
642 -643 0
-637 -642 643 0
390 -644 0
47 -644 0
-390 -47 644 0
-643 641 0
-644 641 0
643 644 -641 0
48 391 -646 0
-48 391 646 0
48 -391 646 0
-48 -391 -646 0
646 641 -274 0
-646 641 274 0
646 -641 274 0
-646 -641 -274 0
641 -647 0
646 -647 0
-641 -646 647 0
391 -648 0
48 -648 0
-391 -48 648 0
-647 645 0
-648 645 0
647 648 -645 0
49 392 -650 0
-49 392 650 0
49 -392 650 0
-49 -392 -650 0
650 645 -275 0
-650 645 275 0
650 -645 275 0
-650 -645 -275 0
645 -651 0
650 -651 0
-645 -650 651 0
392 -652 0
49 -652 0
-392 -49 652 0
-651 649 0
-652 649 0
651 652 -649 0
50 393 -654 0
-50 393 654 0
50 -393 654 0
-50 -393 -654 0
654 649 -276 0
-654 649 276 0
654 -649 276 0
-654 -649 -276 0
649 -655 0
654 -655 0
-649 -654 655 0
393 -656 0
50 -656 0
-393 -50 656 0
-655 653 0
-656 653 0
655 656 -653 0
51 394 -658 0
-51 394 658 0
51 -394 658 0
-51 -394 -658 0
658 653 -277 0
-658 653 277 0
658 -653 277 0
-658 -653 -277 0
653 -659 0
658 -659 0
-653 -658 659 0
394 -660 0
51 -660 0
-394 -51 660 0
-659 657 0
-660 657 0
659 660 -657 0
52 395 -662 0
-52 395 662 0
52 -395 662 0
-52 -395 -662 0
662 657 -278 0
-662 657 278 0
662 -657 278 0
-662 -657 -278 0
657 -663 0
662 -663 0
-657 -662 663 0
395 -664 0
52 -664 0
-395 -52 664 0
-663 661 0
-664 661 0
663 664 -661 0
53 396 -666 0
-53 396 666 0
53 -396 666 0
-53 -396 -666 0
666 661 -279 0
-666 661 279 0
666 -661 279 0
-666 -661 -279 0
661 -667 0
666 -667 0
-661 -666 667 0
396 -668 0
53 -668 0
-396 -53 668 0
-667 665 0
-668 665 0
667 668 -665 0
54 397 -670 0
-54 397 670 0
54 -397 670 0
-54 -397 -670 0
670 665 -280 0
-670 665 280 0
670 -665 280 0
-670 -665 -280 0
665 -671 0
670 -671 0
-665 -670 671 0
397 -672 0
54 -672 0
-397 -54 672 0
-671 669 0
-672 669 0
671 672 -669 0
55 398 -674 0
-55 398 674 0
55 -398 674 0
-55 -398 -674 0
674 669 -281 0
-674 669 281 0
674 -669 281 0
-674 -669 -281 0
669 -675 0
674 -675 0
-669 -674 675 0
398 -676 0
55 -676 0
-398 -55 676 0
-675 673 0
-676 673 0
675 676 -673 0
56 399 -678 0
-56 399 678 0
56 -399 678 0
-56 -399 -678 0
678 673 -282 0
-678 673 282 0
678 -673 282 0
-678 -673 -282 0
673 -679 0
678 -679 0
-673 -678 679 0
399 -680 0
56 -680 0
-399 -56 680 0
-679 677 0
-680 677 0
679 680 -677 0
57 400 -682 0
-57 400 682 0
57 -400 682 0
-57 -400 -682 0
682 677 -283 0
-682 677 283 0
682 -677 283 0
-682 -677 -283 0
677 -683 0
682 -683 0
-677 -682 683 0
400 -684 0
57 -684 0
-400 -57 684 0
-683 681 0
-684 681 0
683 684 -681 0
58 401 -686 0
-58 401 686 0
58 -401 686 0
-58 -401 -686 0
686 681 -284 0
-686 681 284 0
686 -681 284 0
-686 -681 -284 0
681 -687 0
686 -687 0
-681 -686 687 0
401 -688 0
58 -688 0
-401 -58 688 0
-687 685 0
-688 685 0
687 688 -685 0
59 402 -690 0
-59 402 690 0
59 -402 690 0
-59 -402 -690 0
690 685 -285 0
-690 685 285 0
690 -685 285 0
-690 -685 -285 0
685 -691 0
690 -691 0
-685 -690 691 0
402 -692 0
59 -692 0
-402 -59 692 0
-691 689 0
-692 689 0
691 692 -689 0
60 403 -694 0
-60 403 694 0
60 -403 694 0
-60 -403 -694 0
694 689 -286 0
-694 689 286 0
694 -689 286 0
-694 -689 -286 0
689 -695 0
694 -695 0
-689 -694 695 0
403 -696 0
60 -696 0
-403 -60 696 0
-695 693 0
-696 693 0
695 696 -693 0
61 404 -698 0
-61 404 698 0
61 -404 698 0
-61 -404 -698 0
698 693 -287 0
-698 693 287 0
698 -693 287 0
-698 -693 -287 0
693 -699 0
698 -699 0
-693 -698 699 0
404 -700 0
61 -700 0
-404 -61 700 0
-699 697 0
-700 697 0
699 700 -697 0
62 405 -702 0
-62 405 702 0
62 -405 702 0
-62 -405 -702 0
702 697 -288 0
-702 697 288 0
702 -697 288 0
-702 -697 -288 0
697 -703 0
702 -703 0
-697 -702 703 0
405 -704 0
62 -704 0
-405 -62 704 0
-703 701 0
-704 701 0
703 704 -701 0
63 406 -706 0
-63 406 706 0
63 -406 706 0
-63 -406 -706 0
706 701 -289 0
-706 701 289 0
706 -701 289 0
-706 -701 -289 0
701 -707 0
706 -707 0
-701 -706 707 0
406 -708 0
63 -708 0
-406 -63 708 0
-707 705 0
-708 705 0
707 708 -705 0
64 407 -710 0
-64 407 710 0
64 -407 710 0
-64 -407 -710 0
710 705 -290 0
-710 705 290 0
710 -705 290 0
-710 -705 -290 0
705 -711 0
710 -711 0
-705 -710 711 0
407 -712 0
64 -712 0
-407 -64 712 0
-711 709 0
-712 709 0
711 712 -709 0
65 408 -714 0
-65 408 714 0
65 -408 714 0
-65 -408 -714 0
714 709 -291 0
-714 709 291 0
714 -709 291 0
-714 -709 -291 0
709 -715 0
714 -715 0
-709 -714 715 0
408 -716 0
65 -716 0
-408 -65 716 0
-715 713 0
-716 713 0
715 716 -713 0
66 409 -718 0
-66 409 718 0
66 -409 718 0
-66 -409 -718 0
718 713 -292 0
-718 713 292 0
718 -713 292 0
-718 -713 -292 0
713 -719 0
718 -719 0
-713 -718 719 0
409 -720 0
66 -720 0
-409 -66 720 0
-719 717 0
-720 717 0
719 720 -717 0
67 410 -722 0
-67 410 722 0
67 -410 722 0
-67 -410 -722 0
722 717 -293 0
-722 717 293 0
722 -717 293 0
-722 -717 -293 0
717 -723 0
722 -723 0
-717 -722 723 0
410 -724 0
67 -724 0
-410 -67 724 0
-723 721 0
-724 721 0
723 724 -721 0
68 411 -726 0
-68 411 726 0
68 -411 726 0
-68 -411 -726 0
726 721 -294 0
-726 721 294 0
726 -721 294 0
-726 -721 -294 0
721 -727 0
726 -727 0
-721 -726 727 0
411 -728 0
68 -728 0
-411 -68 728 0
-727 725 0
-728 725 0
727 728 -725 0
69 412 -730 0
-69 412 730 0
69 -412 730 0
-69 -412 -730 0
730 725 -295 0
-730 725 295 0
730 -725 295 0
-730 -725 -295 0
725 -731 0
730 -731 0
-725 -730 731 0
412 -732 0
69 -732 0
-412 -69 732 0
-731 729 0
-732 729 0
731 732 -729 0
70 413 -734 0
-70 413 734 0
70 -413 734 0
-70 -413 -734 0
734 729 -296 0
-734 729 296 0
734 -729 296 0
-734 -729 -296 0
729 -735 0
734 -735 0
-729 -734 735 0
413 -736 0
70 -736 0
-413 -70 736 0
-735 733 0
-736 733 0
735 736 -733 0
71 414 -738 0
-71 414 738 0
71 -414 738 0
-71 -414 -738 0
738 733 -297 0
-738 733 297 0
738 -733 297 0
-738 -733 -297 0
733 -739 0
738 -739 0
-733 -738 739 0
414 -740 0
71 -740 0
-414 -71 740 0
-739 737 0
-740 737 0
739 740 -737 0
72 415 -742 0
-72 415 742 0
72 -415 742 0
-72 -415 -742 0
742 737 -298 0
-742 737 298 0
742 -737 298 0
-742 -737 -298 0
737 -743 0
742 -743 0
-737 -742 743 0
415 -744 0
72 -744 0
-415 -72 744 0
-743 741 0
-744 741 0
743 744 -741 0
73 416 -746 0
-73 416 746 0
73 -416 746 0
-73 -416 -746 0
746 741 -299 0
-746 741 299 0
746 -741 299 0
-746 -741 -299 0
741 -747 0
746 -747 0
-741 -746 747 0
416 -748 0
73 -748 0
-416 -73 748 0
-747 745 0
-748 745 0
747 748 -745 0
74 417 -750 0
-74 417 750 0
74 -417 750 0
-74 -417 -750 0
750 745 -300 0
-750 745 300 0
750 -745 300 0
-750 -745 -300 0
745 -751 0
750 -751 0
-745 -750 751 0
417 -752 0
74 -752 0
-417 -74 752 0
-751 749 0
-752 749 0
751 752 -749 0
75 418 -754 0
-75 418 754 0
75 -418 754 0
-75 -418 -754 0
754 749 -301 0
-754 749 301 0
754 -749 301 0
-754 -749 -301 0
749 -755 0
754 -755 0
-749 -754 755 0
418 -756 0
75 -756 0
-418 -75 756 0
-755 753 0
-756 753 0
755 756 -753 0
76 419 -758 0
-76 419 758 0
76 -419 758 0
-76 -419 -758 0
758 753 -302 0
-758 753 302 0
758 -753 302 0
-758 -753 -302 0
753 -759 0
758 -759 0
-753 -758 759 0
419 -760 0
76 -760 0
-419 -76 760 0
-759 757 0
-760 757 0
759 760 -757 0
77 420 -762 0
-77 420 762 0
77 -420 762 0
-77 -420 -762 0
762 757 -303 0
-762 757 303 0
762 -757 303 0
-762 -757 -303 0
757 -763 0
762 -763 0
-757 -762 763 0
420 -764 0
77 -764 0
-420 -77 764 0
-763 761 0
-764 761 0
763 764 -761 0
78 421 -766 0
-78 421 766 0
78 -421 766 0
-78 -421 -766 0
766 761 -304 0
-766 761 304 0
766 -761 304 0
-766 -761 -304 0
761 -767 0
766 -767 0
-761 -766 767 0
421 -768 0
78 -768 0
-421 -78 768 0
-767 765 0
-768 765 0
767 768 -765 0
79 422 -770 0
-79 422 770 0
79 -422 770 0
-79 -422 -770 0
770 765 -305 0
-770 765 305 0
770 -765 305 0
-770 -765 -305 0
765 -771 0
770 -771 0
-765 -770 771 0
422 -772 0
79 -772 0
-422 -79 772 0
-771 769 0
-772 769 0
771 772 -769 0
80 423 -774 0
-80 423 774 0
80 -423 774 0
-80 -423 -774 0
774 769 -306 0
-774 769 306 0
774 -769 306 0
-774 -769 -306 0
769 -775 0
774 -775 0
-769 -774 775 0
423 -776 0
80 -776 0
-423 -80 776 0
-775 773 0
-776 773 0
775 776 -773 0
81 424 -778 0
-81 424 778 0
81 -424 778 0
-81 -424 -778 0
778 773 -307 0
-778 773 307 0
778 -773 307 0
-778 -773 -307 0
773 -779 0
778 -779 0
-773 -778 779 0
424 -780 0
81 -780 0
-424 -81 780 0
-779 777 0
-780 777 0
779 780 -777 0
82 425 -782 0
-82 425 782 0
82 -425 782 0
-82 -425 -782 0
782 777 -308 0
-782 777 308 0
782 -777 308 0
-782 -777 -308 0
777 -783 0
782 -783 0
-777 -782 783 0
425 -784 0
82 -784 0
-425 -82 784 0
-783 781 0
-784 781 0
783 784 -781 0
83 426 -786 0
-83 426 786 0
83 -426 786 0
-83 -426 -786 0
786 781 -309 0
-786 781 309 0
786 -781 309 0
-786 -781 -309 0
781 -787 0
786 -787 0
-781 -786 787 0
426 -788 0
83 -788 0
-426 -83 788 0
-787 785 0
-788 785 0
787 788 -785 0
84 427 -790 0
-84 427 790 0
84 -427 790 0
-84 -427 -790 0
790 785 -310 0
-790 785 310 0
790 -785 310 0
-790 -785 -310 0
785 -791 0
790 -791 0
-785 -790 791 0
427 -792 0
84 -792 0
-427 -84 792 0
-791 789 0
-792 789 0
791 792 -789 0
85 428 -794 0
-85 428 794 0
85 -428 794 0
-85 -428 -794 0
794 789 -311 0
-794 789 311 0
794 -789 311 0
-794 -789 -311 0
789 -795 0
794 -795 0
-789 -794 795 0
428 -796 0
85 -796 0
-428 -85 796 0
-795 793 0
-796 793 0
795 796 -793 0
86 429 -798 0
-86 429 798 0
86 -429 798 0
-86 -429 -798 0
798 793 -312 0
-798 793 312 0
798 -793 312 0
-798 -793 -312 0
793 -799 0
798 -799 0
-793 -798 799 0
429 -800 0
86 -800 0
-429 -86 800 0
-799 797 0
-800 797 0
799 800 -797 0
87 430 -802 0
-87 430 802 0
87 -430 802 0
-87 -430 -802 0
802 797 -313 0
-802 797 313 0
802 -797 313 0
-802 -797 -313 0
797 -803 0
802 -803 0
-797 -802 803 0
430 -804 0
87 -804 0
-430 -87 804 0
-803 801 0
-804 801 0
803 804 -801 0
88 431 -806 0
-88 431 806 0
88 -431 806 0
-88 -431 -806 0
806 801 -314 0
-806 801 314 0
806 -801 314 0
-806 -801 -314 0
801 -807 0
806 -807 0
-801 -806 807 0
431 -808 0
88 -808 0
-431 -88 808 0
-807 805 0
-808 805 0
807 808 -805 0
89 432 -810 0
-89 432 810 0
89 -432 810 0
-89 -432 -810 0
810 805 -315 0
-810 805 315 0
810 -805 315 0
-810 -805 -315 0
805 -811 0
810 -811 0
-805 -810 811 0
432 -812 0
89 -812 0
-432 -89 812 0
-811 809 0
-812 809 0
811 812 -809 0
90 433 -814 0
-90 433 814 0
90 -433 814 0
-90 -433 -814 0
814 809 -316 0
-814 809 316 0
814 -809 316 0
-814 -809 -316 0
809 -815 0
814 -815 0
-809 -814 815 0
433 -816 0
90 -816 0
-433 -90 816 0
-815 813 0
-816 813 0
815 816 -813 0
91 434 -818 0
-91 434 818 0
91 -434 818 0
-91 -434 -818 0
818 813 -317 0
-818 813 317 0
818 -813 317 0
-818 -813 -317 0
813 -819 0
818 -819 0
-813 -818 819 0
434 -820 0
91 -820 0
-434 -91 820 0
-819 817 0
-820 817 0
819 820 -817 0
92 435 -822 0
-92 435 822 0
92 -435 822 0
-92 -435 -822 0
822 817 -318 0
-822 817 318 0
822 -817 318 0
-822 -817 -318 0
817 -823 0
822 -823 0
-817 -822 823 0
435 -824 0
92 -824 0
-435 -92 824 0
-823 821 0
-824 821 0
823 824 -821 0
93 436 -826 0
-93 436 826 0
93 -436 826 0
-93 -436 -826 0
826 821 -319 0
-826 821 319 0
826 -821 319 0
-826 -821 -319 0
821 -827 0
826 -827 0
-821 -826 827 0
436 -828 0
93 -828 0
-436 -93 828 0
-827 825 0
-828 825 0
827 828 -825 0
94 437 -830 0
-94 437 830 0
94 -437 830 0
-94 -437 -830 0
830 825 -320 0
-830 825 320 0
830 -825 320 0
-830 -825 -320 0
825 -831 0
830 -831 0
-825 -830 831 0
437 -832 0
94 -832 0
-437 -94 832 0
-831 829 0
-832 829 0
831 832 -829 0
95 438 -834 0
-95 438 834 0
95 -438 834 0
-95 -438 -834 0
834 829 -321 0
-834 829 321 0
834 -829 321 0
-834 -829 -321 0
829 -835 0
834 -835 0
-829 -834 835 0
438 -836 0
95 -836 0
-438 -95 836 0
-835 833 0
-836 833 0
835 836 -833 0
96 439 -838 0
-96 439 838 0
96 -439 838 0
-96 -439 -838 0
838 833 -322 0
-838 833 322 0
838 -833 322 0
-838 -833 -322 0
833 -839 0
838 -839 0
-833 -838 839 0
439 -840 0
96 -840 0
-439 -96 840 0
-839 837 0
-840 837 0
839 840 -837 0
97 440 -842 0
-97 440 842 0
97 -440 842 0
-97 -440 -842 0
842 837 -323 0
-842 837 323 0
842 -837 323 0
-842 -837 -323 0
837 -843 0
842 -843 0
-837 -842 843 0
440 -844 0
97 -844 0
-440 -97 844 0
-843 841 0
-844 841 0
843 844 -841 0
98 441 -846 0
-98 441 846 0
98 -441 846 0
-98 -441 -846 0
846 841 -324 0
-846 841 324 0
846 -841 324 0
-846 -841 -324 0
841 -847 0
846 -847 0
-841 -846 847 0
441 -848 0
98 -848 0
-441 -98 848 0
-847 845 0
-848 845 0
847 848 -845 0
99 442 -850 0
-99 442 850 0
99 -442 850 0
-99 -442 -850 0
850 845 -325 0
-850 845 325 0
850 -845 325 0
-850 -845 -325 0
845 -851 0
850 -851 0
-845 -850 851 0
442 -852 0
99 -852 0
-442 -99 852 0
-851 849 0
-852 849 0
851 852 -849 0
100 443 -854 0
-100 443 854 0
100 -443 854 0
-100 -443 -854 0
854 849 -326 0
-854 849 326 0
854 -849 326 0
-854 -849 -326 0
849 -855 0
854 -855 0
-849 -854 855 0
443 -856 0
100 -856 0
-443 -100 856 0
-855 853 0
-856 853 0
855 856 -853 0
101 444 -858 0
-101 444 858 0
101 -444 858 0
-101 -444 -858 0
858 853 -327 0
-858 853 327 0
858 -853 327 0
-858 -853 -327 0
853 -859 0
858 -859 0
-853 -858 859 0
444 -860 0
101 -860 0
-444 -101 860 0
-859 857 0
-860 857 0
859 860 -857 0
102 445 -862 0
-102 445 862 0
102 -445 862 0
-102 -445 -862 0
862 857 -328 0
-862 857 328 0
862 -857 328 0
-862 -857 -328 0
857 -863 0
862 -863 0
-857 -862 863 0
445 -864 0
102 -864 0
-445 -102 864 0
-863 861 0
-864 861 0
863 864 -861 0
103 446 -866 0
-103 446 866 0
103 -446 866 0
-103 -446 -866 0
866 861 -329 0
-866 861 329 0
866 -861 329 0
-866 -861 -329 0
861 -867 0
866 -867 0
-861 -866 867 0
446 -868 0
103 -868 0
-446 -103 868 0
-867 865 0
-868 865 0
867 868 -865 0
104 447 -870 0
-104 447 870 0
104 -447 870 0
-104 -447 -870 0
870 865 -330 0
-870 865 330 0
870 -865 330 0
-870 -865 -330 0
865 -871 0
870 -871 0
-865 -870 871 0
447 -872 0
104 -872 0
-447 -104 872 0
-871 869 0
-872 869 0
871 872 -869 0
105 448 -874 0
-105 448 874 0
105 -448 874 0
-105 -448 -874 0
874 869 -331 0
-874 869 331 0
874 -869 331 0
-874 -869 -331 0
869 -875 0
874 -875 0
-869 -874 875 0
448 -876 0
105 -876 0
-448 -105 876 0
-875 873 0
-876 873 0
875 876 -873 0
106 449 -878 0
-106 449 878 0
106 -449 878 0
-106 -449 -878 0
878 873 -332 0
-878 873 332 0
878 -873 332 0
-878 -873 -332 0
873 -879 0
878 -879 0
-873 -878 879 0
449 -880 0
106 -880 0
-449 -106 880 0
-879 877 0
-880 877 0
879 880 -877 0
107 450 -882 0
-107 450 882 0
107 -450 882 0
-107 -450 -882 0
882 877 -333 0
-882 877 333 0
882 -877 333 0
-882 -877 -333 0
877 -883 0
882 -883 0
-877 -882 883 0
450 -884 0
107 -884 0
-450 -107 884 0
-883 881 0
-884 881 0
883 884 -881 0
108 451 -886 0
-108 451 886 0
108 -451 886 0
-108 -451 -886 0
886 881 -334 0
-886 881 334 0
886 -881 334 0
-886 -881 -334 0
881 -887 0
886 -887 0
-881 -886 887 0
451 -888 0
108 -888 0
-451 -108 888 0
-887 885 0
-888 885 0
887 888 -885 0
109 452 -890 0
-109 452 890 0
109 -452 890 0
-109 -452 -890 0
890 885 -335 0
-890 885 335 0
890 -885 335 0
-890 -885 -335 0
885 -891 0
890 -891 0
-885 -890 891 0
452 -892 0
109 -892 0
-452 -109 892 0
-891 889 0
-892 889 0
891 892 -889 0
110 453 -894 0
-110 453 894 0
110 -453 894 0
-110 -453 -894 0
894 889 -336 0
-894 889 336 0
894 -889 336 0
-894 -889 -336 0
889 -895 0
894 -895 0
-889 -894 895 0
453 -896 0
110 -896 0
-453 -110 896 0
-895 893 0
-896 893 0
895 896 -893 0
111 454 -898 0
-111 454 898 0
111 -454 898 0
-111 -454 -898 0
898 893 -337 0
-898 893 337 0
898 -893 337 0
-898 -893 -337 0
893 -899 0
898 -899 0
-893 -898 899 0
454 -900 0
111 -900 0
-454 -111 900 0
-899 897 0
-900 897 0
899 900 -897 0
112 455 -902 0
-112 455 902 0
112 -455 902 0
-112 -455 -902 0
902 897 -338 0
-902 897 338 0
902 -897 338 0
-902 -897 -338 0
897 -903 0
902 -903 0
-897 -902 903 0
455 -904 0
112 -904 0
-455 -112 904 0
-903 901 0
-904 901 0
903 904 -901 0
113 456 -906 0
-113 456 906 0
113 -456 906 0
-113 -456 -906 0
906 901 -339 0
-906 901 339 0
906 -901 339 0
-906 -901 -339 0
901 -907 0
906 -907 0
-901 -906 907 0
456 -908 0
113 -908 0
-456 -113 908 0
-907 905 0
-908 905 0
907 908 -905 0
905 341 -340 0
-905 341 340 0
905 -341 340 0
-905 -341 -340 0
